;;^\s*@import\s*url\((["']?)(.*?)\1\)\s*;?\s*$

(set-option :produce-models true)
(set-option :inline-size-limit 10000)

(declare-const var0 String)

(assert (str.in.re var0 (re.* (re.range "\x01" "\xff"))))

(assert (str.in.re var0 (re.++ (re.++ re.begin-anchor (re.++ (re.* (re.union (str.to.re " ") (re.union (str.to.re "\u{0b}") (re.union (str.to.re "\u{0a}") (re.union (str.to.re "\u{0d}") (re.union (str.to.re "\u{09}") (str.to.re "\u{0c}"))))))) (re.++ (str.to.re "@") (re.++ (str.to.re "i") (re.++ (str.to.re "m") (re.++ (str.to.re "p") (re.++ (str.to.re "o") (re.++ (str.to.re "r") (re.++ (str.to.re "t") (re.++ (re.* (re.union (str.to.re " ") (re.union (str.to.re "\u{0b}") (re.union (str.to.re "\u{0a}") (re.union (str.to.re "\u{0d}") (re.union (str.to.re "\u{09}") (str.to.re "\u{0c}"))))))) (re.++ (str.to.re "u") (re.++ (str.to.re "r") (re.++ (str.to.re "l") (re.++ (str.to.re "(") (re.++ ((_ re.capture 1) (re.opt (re.union (str.to.re "\u{22}") (str.to.re "\u{27}")))) (re.++ ((_ re.capture 2) (re.*? (re.diff (re.range "\x01" "\xff") (str.to.re "\n")))) (re.++ (_ re.reference 1) (re.++ (str.to.re ")") (re.++ (re.* (re.union (str.to.re " ") (re.union (str.to.re "\u{0b}") (re.union (str.to.re "\u{0a}") (re.union (str.to.re "\u{0d}") (re.union (str.to.re "\u{09}") (str.to.re "\u{0c}"))))))) (re.++ (re.opt (str.to.re ";")) (re.* (re.union (str.to.re " ") (re.union (str.to.re "\u{0b}") (re.union (str.to.re "\u{0a}") (re.union (str.to.re "\u{0d}") (re.union (str.to.re "\u{09}") (str.to.re "\u{0c}"))))))))))))))))))))))))))) re.end-anchor)))

(assert (> (str.len var0) 10))

(check-sat)
(get-model)
